40
3 1 5
4 1 10
4 2 3
5 0 1
5 1 2
5 2 4
5 3 11
6 0 10
6 2 4
6 5 2
7 0 4
7 4 3
7 5 10
8 3 7
8 5 2
8 7 11
9 0 8
9 2 6
9 3 9
9 4 10
9 5 3
9 7 11
9 8 4
10 1 11
10 3 8
10 4 8
10 7 3
10 8 10
10 9 4
11 1 11
11 4 6
11 5 9
11 6 11
11 10 11
12 0 1
12 1 2
12 3 11
12 5 11
12 6 6
12 7 8
12 9 8
13 3 1
13 4 8
13 5 7
13 6 1
13 7 11
13 9 3
14 2 10
14 5 4
14 7 3
14 10 3
15 2 7
15 6 2
15 7 11
15 8 5
15 10 2
15 11 11
15 12 1
15 14 8
16 1 9
16 3 4
16 4 4
16 5 6
16 6 6
16 7 1
16 9 6
16 10 2
16 12 9
16 13 6
16 14 2
17 1 3
17 3 1
17 5 11
17 8 3
17 9 10
17 10 10
17 11 1
17 13 2
17 16 7
18 3 6
18 4 2
18 6 6
18 7 1
18 13 9
18 14 6
18 16 8
18 17 4
19 2 7
19 3 2
19 5 11
19 8 11
19 9 11
19 11 5
19 13 4
19 18 7
20 0 4
20 2 6
20 3 1
20 5 3
20 6 11
20 7 3
20 8 10
20 9 7
20 14 3
20 16 5
20 17 9
20 18 11
21 1 5
21 2 9
21 5 4
21 7 9
21 8 9
21 10 1
21 15 6
21 17 7
21 20 8
22 0 2
22 2 11
22 7 6
22 12 10
22 15 10
22 18 4
22 19 3
22 20 5
22 21 4
23 0 9
23 1 6
23 3 3
23 4 7
23 5 3
23 6 10
23 7 4
23 9 9
23 13 2
23 14 11
23 16 5
23 19 9
24 1 9
24 3 6
24 6 6
24 7 8
24 8 4
24 11 9
24 14 2
24 15 1
24 18 5
24 19 10
25 0 1
25 1 10
25 3 7
25 5 8
25 6 2
25 7 10
25 8 5
25 9 5
25 14 5
25 17 3
25 18 9
25 19 8
25 21 11
25 23 1
26 4 10
26 9 3
26 10 2
26 11 1
26 13 10
26 14 4
26 15 9
26 16 5
26 19 8
26 21 5
26 23 3
27 3 10
27 5 9
27 6 2
27 7 6
27 9 9
27 11 11
27 12 7
27 14 3
27 16 6
27 17 8
27 18 3
27 19 7
27 20 10
27 21 7
27 23 5
27 24 9
27 26 10
28 1 2
28 3 8
28 4 10
28 6 6
28 7 6
28 8 9
28 9 10
28 10 8
28 12 4
28 14 2
28 15 5
28 18 6
28 19 2
28 23 10
28 25 5
29 2 8
29 3 8
29 4 8
29 6 8
29 7 3
29 8 3
29 10 5
29 11 10
29 12 2
29 14 5
29 16 5
29 17 9
29 18 4
29 19 3
29 28 5
30 1 9
30 4 2
30 5 10
30 6 3
30 7 11
30 9 2
30 10 7
30 11 10
30 12 2
30 14 9
30 17 5
30 18 1
30 22 9
30 29 5
31 0 1
31 4 10
31 5 6
31 10 10
31 11 8
31 16 1
31 17 4
31 20 8
31 21 8
31 22 8
31 23 9
31 24 5
31 25 11
31 27 11
31 30 7
32 0 7
32 2 1
32 3 2
32 4 2
32 6 9
32 7 3
32 8 11
32 10 9
32 16 1
32 17 11
32 19 5
32 22 2
32 24 9
32 25 7
32 29 6
32 30 1
32 31 4
33 0 3
33 2 9
33 3 6
33 5 6
33 12 1
33 13 3
33 14 7
33 15 10
33 17 6
33 22 2
33 24 8
33 25 2
33 27 1
33 28 7
33 31 6
34 0 2
34 2 11
34 3 1
34 5 7
34 8 7
34 9 10
34 10 6
34 12 9
34 13 2
34 18 8
34 19 6
34 20 5
34 22 1
34 27 4
34 28 4
34 29 9
34 31 10
34 33 5
35 0 4
35 1 4
35 5 10
35 7 8
35 9 9
35 10 2
35 11 5
35 14 4
35 16 7
35 20 7
35 21 2
35 26 9
35 27 6
35 29 9
35 33 2
35 34 4
36 1 8
36 3 2
36 4 9
36 5 11
36 6 8
36 9 9
36 10 3
36 11 10
36 13 2
36 14 5
36 16 4
36 17 6
36 22 4
36 24 7
36 25 8
36 29 9
36 31 3
36 33 7
36 34 7
37 0 3
37 2 7
37 3 4
37 7 2
37 9 7
37 12 6
37 15 8
37 19 10
37 20 4
37 23 5
37 24 4
37 26 9
37 27 11
37 28 4
37 29 8
37 33 11
37 34 8
38 0 7
38 1 9
38 3 4
38 5 2
38 8 10
38 9 5
38 13 1
38 20 10
38 21 9
38 23 7
38 24 11
38 26 10
38 30 6
38 31 10
39 2 9
39 5 11
39 8 4
39 10 6
39 11 8
39 13 5
39 14 9
39 17 7
39 18 6
39 19 1
39 21 8
39 22 7
39 24 2
39 27 11
39 32 1
39 33 10
39 34 10
39 38 8
